# Random Circle Problem
param d := 0.05; 
param n := 10; 
param radius := 2.00; 
param v0 := 
1 5.75
2 5.15
3 5.90
4 5.45
5 5.00
6 5.40
7 5.71
8 5.72
9 5.73
10 5.57
;
param cap := 
1 3.19539
2 3.52250
3 4.32758
4 5.53756
5 5.90913
6 6.13449
7 0.31577
8 1.07588
9 2.31360
10 2.58798
;
param x0 := 
1 2.00
2 1.62
3 0.62
4 -0.62
5 -1.62
6 -2.00
7 -1.62
8 -0.62
9 0.62
10 1.62
;
param y0 := 
1 -0.00
2 1.18
3 1.90
4 1.90
5 1.18
6 0.00
7 -1.18
8 -1.90
9 -1.90
10 -1.18
;
